1 1 2 0
1 3 2 0
1 3 -1 0
1 3 -4 0
1 5 -2 0
1 6 -7 0
1 -6 -8 0
1 -6 5 0
1 -2 -9 0
1 -2 -10 0
1 11 12 0
1 -11 -10 0
1 -13 -14 0
1 13 6 0
1 -13 5 0
1 4 -13 0
1 -4 12 0
1 -4 -5 0
1 15 -16 0
1 15 -2 0
1 15 -7 0
1 -15 -8 0
1 -9 17 0
1 -9 -11 0
1 10 18 0
1 10 19 0
1 10 2 0
1 -19 -18 0
1 -19 -16 0
1 19 -2 0
1 -19 11 0
1 8 20 0
1 -8 16 0
1 8 9 0
1 -8 10 0
1 -8 -5 0
1 8 21 0
1 16 20 0
1 16 -22 0
1 7 18 0
1 -7 -23 0
1 -7 15 0
1 7 -5 0
1 18 -6 0
1 -18 -12 0
1 18 15 0
1 22 12 0
1 -22 -24 0
1 20 -25 0
1 -20 -26 0
1 27 28 0
1 -27 29 0
1 27 24 0
1 28 -16 0
1 28 26 0
1 30 19 0
1 30 -27 0
1 31 22 0
1 -24 23 0
1 26 23 0
1 -32 -17 0
1 -32 33 0
1 32 -34 0
1 17 -13 0
1 -17 34 0
1 -35 -14 0
1 -35 36 0
1 35 33 0
1 35 34 0
1 -35 37 0
1 -35 -38 0
1 35 -4 0
1 14 -34 0
1 -14 -39 0
1 14 -13 0
1 -14 37 0
1 -39 -34 0
1 39 14 0
1 -39 17 0
1 39 29 0
1 34 -39 0
1 34 -12 0
1 -36 -17 0
1 33 36 0
1 33 35 0
1 -12 -39 0
1 -12 40 0
1 12 13 0
1 12 7 0
1 12 4 0
1 -25 18 0
1 25 -20 0
1 -25 39 0
1 25 2 0
1 25 34 0
1 25 11 0
1 29 -34 0
1 29 -37 0
1 -41 -42 0
1 -41 43 0
1 41 -38 0
1 41 44 0
1 -43 25 0
1 43 -23 0
1 -43 35 0
1 -43 38 0
1 -43 -45 0
1 -43 -21 0
1 38 -29 0
1 -38 12 0
1 38 21 0
1 -40 -41 0
1 -40 -29 0
1 -37 -29 0
1 37 -35 0
1 -23 43 0
1 -23 -7 0
1 23 -24 0
1 23 44 0
1 -21 46 0
1 21 7 0
1 21 -8 0
1 -47 26 0
1 -47 43 0
1 47 -24 0
1 45 43 0
1 -45 -46 0
1 45 44 0
1 45 -38 0
1 46 -47 0
1 46 -23 0
1 46 -29 0
1 -46 45 0
1 -42 41 0
1 42 47 0
1 -42 45 0
1 -42 -21 0
1 -44 48 0
1 -44 21 0
